p cnf 104 321
c t mc
-5 -3 0
-5 4 0
3 -4 5 0
6 2 0
6 -5 0
-2 5 -6 0
1 6 -7 0
-1 -6 -7 0
1 -6 7 0
-1 6 7 0
-9 -7 0
-9 -8 0
7 8 9 0
-11 4 -12 0
11 -4 -12 0
-11 -4 12 0
11 4 12 0
-10 -12 -13 0
10 12 -13 0
-10 12 13 0
10 -12 13 0
13 11 -14 0
-13 -11 -14 0
13 -11 14 0
-13 11 14 0
15 -16 -17 0
-15 16 -17 0
15 16 17 0
-15 -16 17 0
-18 19 -20 0
18 -19 -20 0
-18 -19 20 0
18 19 20 0
-19 -8 -22 0
19 8 -22 0
-19 8 22 0
19 -8 22 0
-21 -22 -23 0
21 22 -23 0
-21 22 23 0
21 -22 23 0
20 23 -24 0
-20 -23 -24 0
20 -23 24 0
-20 23 24 0
-25 -17 0
-25 -24 0
17 24 25 0
14 -25 -26 0
-14 25 -26 0
14 25 26 0
-14 -25 26 0
29 -8 0
29 -28 0
8 28 -29 0
30 27 0
30 29 0
-27 -29 -30 0
31 -26 0
31 -30 0
26 30 -31 0
33 32 0
33 -18 0
-32 18 -33 0
34 -33 0
34 -32 0
33 32 -34 0
36 28 0
36 -32 0
-28 32 -36 0
37 36 0
37 -36 0
-35 -37 -38 0
35 37 -38 0
-35 37 38 0
35 -37 38 0
-11 -7 -39 0
11 7 -39 0
-11 7 39 0
11 -7 39 0
39 -10 -40 0
-39 10 -40 0
39 10 40 0
-39 -10 40 0
41 -40 0
41 -11 0
40 11 -41 0
42 -5 0
42 4 0
5 -4 -42 0
-2 -43 -44 0
2 43 -44 0
-2 43 44 0
2 -43 44 0
46 -44 0
46 -45 0
44 45 -46 0
42 -46 -47 0
-42 46 -47 0
42 46 47 0
-42 -46 47 0
-41 47 -48 0
41 -47 -48 0
-41 -47 48 0
41 47 48 0
-49 38 0
-49 -48 0
-38 48 49 0
-50 34 0
-50 49 0
-34 -49 50 0
51 16 0
51 -40 0
-16 40 -51 0
-52 50 0
-52 -51 0
-50 51 52 0
-53 31 0
-53 -52 0
-31 52 53 0
54 6 0
54 19 0
-6 -19 -54 0
-55 -18 0
-55 40 0
18 -40 55 0
54 55 -56 0
-54 -55 -56 0
54 -55 56 0
-54 55 56 0
57 45 0
57 -14 0
-45 14 -57 0
-59 -57 0
-59 -58 0
57 58 59 0
-60 -56 0
-60 59 0
56 -59 60 0
61 12 0
61 3 0
-12 -3 -61 0
-62 1 0
-62 25 0
-1 -25 62 0
-63 -61 0
-63 -62 0
61 62 63 0
-60 -63 -64 0
60 63 -64 0
-60 63 64 0
60 -63 64 0
-65 53 0
-65 64 0
-53 -64 65 0
-66 9 0
-66 -65 0
-9 65 66 0
-44 -39 -67 0
44 39 -67 0
-44 39 67 0
44 -39 67 0
67 -68 -69 0
-67 68 -69 0
67 68 69 0
-67 -68 69 0
-70 5 0
-70 -13 0
-5 13 70 0
71 69 0
71 -70 0
-69 70 -71 0
72 27 0
72 36 0
-27 -36 -72 0
73 -40 0
73 4 0
40 -4 -73 0
-74 8 0
-74 -73 0
-8 73 74 0
-72 -74 -75 0
72 74 -75 0
-72 74 75 0
72 -74 75 0
-71 75 -76 0
71 -75 -76 0
-71 -75 76 0
71 75 76 0
-77 4 0
-77 -19 0
-4 19 77 0
78 14 0
78 -77 0
-14 77 -78 0
79 -78 0
79 -3 0
78 3 -79 0
80 -76 0
80 79 0
76 -79 -80 0
-81 -7 0
-81 37 0
7 -37 81 0
-82 19 0
-82 -15 0
-19 15 82 0
83 -81 0
83 82 0
81 -82 -83 0
84 29 0
84 -39 0
-29 39 -84 0
-84 -32 -85 0
84 32 -85 0
-84 32 85 0
84 -32 85 0
-83 85 -86 0
83 -85 -86 0
-83 -85 86 0
83 85 86 0
87 -44 0
87 11 0
44 -11 -87 0
-88 -86 0
-88 -87 0
86 87 88 0
-80 -88 -89 0
80 88 -89 0
-80 88 89 0
80 -88 89 0
-90 -18 0
-90 -21 0
18 21 90 0
91 16 0
91 -23 0
-16 23 -91 0
-17 68 -92 0
17 -68 -92 0
-17 -68 92 0
17 68 92 0
-5 -16 -93 0
5 16 -93 0
-5 16 93 0
5 -16 93 0
-94 -92 0
-94 -93 0
92 93 94 0
-95 92 0
-95 -68 0
-92 68 95 0
96 -94 0
96 95 0
94 -95 -96 0
-97 3 0
-97 -25 0
-3 25 97 0
-45 5 -98 0
45 -5 -98 0
-45 -5 98 0
45 5 98 0
-97 98 -99 0
97 -98 -99 0
-97 -98 99 0
97 98 99 0
100 96 0
100 -99 0
-96 99 -100 0
91 -100 -101 0
-91 100 -101 0
91 100 101 0
-91 -100 101 0
-102 -90 0
-102 -101 0
90 101 102 0
103 -89 0
103 -102 0
89 102 -103 0
104 66 0
104 -103 0
-66 103 -104 0
44 73 -49 -26 -3 0
-56 -32 -42 -3 -97 -76 -92 -54 -48 -26 0
-37 -29 104 12 -22 -55 0
-70 -65 72 2 -64 39 -93 -69 0
17 -9 -91 0
-97 16 -28 76 -12 -96 -90 -38 0
-36 -89 -84 -82 7 74 0
1 -61 -59 58 0
77 46 -29 -102 4 32 -101 0
-77 -5 -102 0
-51 -2 82 35 104 -99 -85 0
-92 58 -73 40 41 61 0
-20 69 -9 4 2 17 0
-65 -28 71 -72 50 -9 -55 -35 70 -79 0
-93 98 32 10 72 -13 0
62 27 -96 -84 -95 -28 0
-44 15 0
90 -69 -87 9 60 37 0
-67 79 -90 -68 -42 61 -75 -41 23 0
34 -16 102 -74 43 0
42 74 3 61 17 55 8 6 -64 0
-60 -92 95 -55 2 -53 -31 -45 0
48 58 54 -84 32 -103 38 -79 0
37 68 86 -5 0
-68 53 -58 -60 52 -63 91 0
-3 -31 73 53 0
-103 -3 0
84 -87 0
71 11 -33 -81 -94 18 0
104 25 44 0
-89 -75 9 86 -25 28 78 0
36 -66 -83 63 0
80 -85 47 75 -69 51 0
49 51 -37 28 -16 -13 -2 65 41 -44 0
89 78 -13 72 -4 28 -79 -103 0
-73 48 96 87 -47 72 84 0
-76 -94 0
41 15 -90 34 -75 0
-76 61 0
104 0
